162
Al2 Ca3 F14 Na2
Ca    8.034308    0.000000    2.564250
Ca    8.034308   10.257000    2.564250
Ca    7.351192    0.000000    7.692750
Ca    7.351192   10.257000    7.692750
Ca    2.222692    5.128500    2.564250
Ca    2.905808    5.128500    7.692750
Ca    2.564250    8.034308    0.000000
Ca    2.564250    8.034308   10.257000
Ca    7.692750    7.351192    0.000000
Ca    7.692750    7.351192   10.257000
Ca    2.564250    2.222692    5.128500
Ca    7.692750    2.905808    5.128500
Ca    0.000000    2.564250    8.034308
Ca   10.257000    2.564250    8.034308
Ca    0.000000    7.692750    7.351192
Ca   10.257000    7.692750    7.351192
Ca    5.128500    2.564250    2.222692
Ca    5.128500    7.692750    2.905808
Al    0.018463    0.018463    0.018463
Al    5.110037   10.238537    5.146963
Al   10.238537    5.146963    5.110037
Al    5.146963    5.110037   10.238537
Al    5.146963    5.146963    5.146963
Al   10.238537    5.110037    0.018463
Al    5.110037    0.018463   10.238537
Al    0.018463   10.238537    5.110037
Na    1.695482    1.695482    1.695482
Na    3.433018    8.561518    6.823982
Na    8.561518    6.823982    3.433018
Na    6.823982    3.433018    8.561518
Na    6.823982    6.823982    6.823982
Na    8.561518    3.433018    1.695482
Na    3.433018    1.695482    8.561518
Na    1.695482    8.561518    3.433018
 F    0.576443    3.986896    1.327256
 F    4.552057    6.270104    6.455756
 F    9.680557    9.115396    3.801244
 F    5.704943    1.141604    8.929744
 F    1.327256    0.576443    3.986896
 F    6.455756    4.552057    6.270104
 F    3.801244    9.680557    9.115396
 F    8.929744    5.704943    1.141604
 F    3.986896    1.327256    0.576443
 F    6.270104    6.455756    4.552057
 F    9.115396    3.801244    9.680557
 F    1.141604    8.929744    5.704943
 F    5.704943    9.115396    6.455756
 F    9.680557    1.141604    1.327256
 F    4.552057    3.986896    8.929744
 F    0.576443    6.270104    3.801244
 F    6.455756    5.704943    9.115396
 F    1.327256    9.680557    1.141604
 F    8.929744    4.552057    3.986896
 F    3.801244    0.576443    6.270104
 F    9.115396    6.455756    5.704943
 F    1.141604    1.327256    9.680557
 F    3.986896    8.929744    4.552057
 F    6.270104    3.801244    0.576443
 F    1.155964    3.959202    4.485386
 F    3.972536    6.297798    9.613886
 F    9.101036    9.087702    0.643114
 F    6.284464    1.169298    5.771614
 F    4.485386    1.155964    3.959202
 F    9.613886    3.972536    6.297798
 F    0.643114    9.101036    9.087702
 F    5.771614    6.284464    1.169298
 F    3.959202    4.485386    1.155964
 F    6.297798    9.613886    3.972536
 F    9.087702    0.643114    9.101036
 F    1.169298    5.771614    6.284464
 F    6.284464    9.087702    9.613886
 F    9.101036    1.169298    4.485386
 F    3.972536    3.959202    5.771614
 F    1.155964    6.297798    0.643114
 F    9.613886    6.284464    9.087702
 F    4.485386    9.101036    1.169298
 F    5.771614    3.972536    3.959202
 F    0.643114    1.155964    6.297798
 F    9.087702    9.613886    6.284464
 F    1.169298    4.485386    9.101036
 F    3.959202    5.771614    3.972536
 F    6.297798    0.643114    1.155964
 F    2.960170    2.960170    2.960170
 F    2.168330    7.296830    8.088670
 F    7.296830    8.088670    2.168330
 F    8.088670    2.168330    7.296830
 F    8.088670    8.088670    8.088670
 F    7.296830    2.168330    2.960170
 F    2.168330    2.960170    7.296830
 F    2.960170    7.296830    2.168330
 F    7.296830   -2.168330    2.168330
 F    6.297798   -0.643114    3.972536
 F    9.101036   -1.169298    0.643114
 F    9.680557   -1.141604    3.801244
 F    6.297798   10.900114    1.155964
 F    7.296830   12.425330    2.960170
 F    9.680557   11.398604    1.327256
 F    9.101036   11.426298    4.485386
 F    5.704943   -1.141604    6.455756
 F    8.088670   -2.168330    8.088670
 F    6.284464   -1.169298    9.613886
 F    9.087702   -0.643114    6.284464
 F    5.704943   11.398604    8.929744
 F    6.284464   11.426298    5.771614
 F    8.088670   12.425330    7.296830
 F    9.087702   10.900114    9.101036
 F    0.643114    9.101036   -1.169298
 F    2.168330    7.296830   -2.168330
 F    3.972536    6.297798   -0.643114
 F    3.801244    9.680557   -1.141604
 F    1.155964    6.297798   10.900114
 F    1.327256    9.680557   11.398604
 F    2.960170    7.296830   12.425330
 F    4.485386    9.101036   11.426298
 F    6.455756    5.704943   -1.141604
 F    8.088670    8.088670   -2.168330
 F    6.284464    9.087702   -0.643114
 F    9.613886    6.284464   -1.169298
 F    5.771614    6.284464   11.426298
 F    7.296830    8.088670   12.425330
 F    8.929744    5.704943   11.398604
 F    9.101036    9.087702   10.900114
 F   -2.168330    2.168330    7.296830
 F   -1.169298    0.643114    9.101036
 F   -0.643114    3.972536    6.297798
 F   -1.141604    3.801244    9.680557
 F   10.900114    1.155964    6.297798
 F   11.398604    1.327256    9.680557
 F   11.426298    4.485386    9.101036
 F   12.425330    2.960170    7.296830
 F   -2.168330    8.088670    8.088670
 F   -1.141604    6.455756    5.704943
 F   -0.643114    6.284464    9.087702
 F   -1.169298    9.613886    6.284464
 F   11.426298    5.771614    6.284464
 F   11.398604    8.929744    5.704943
 F   10.900114    9.101036    9.087702
 F   12.425330    7.296830    8.088670
 F   -1.155964   -1.169298    0.643114
 F   -1.169298    0.643114   -1.155964
 F   -0.576443    1.141604    1.327256
 F    0.643114   -1.155964   -1.169298
 F    1.327256   -0.576443    1.141604
 F    1.141604    1.327256   -0.576443
 F    3.801244   10.833443    6.270104
 F    4.485386   11.412964    3.959202
 F   11.412964    3.959202    4.485386
 F   10.833443    6.270104    3.801244
 F    3.959202    4.485386   11.412964
 F    6.270104    3.801244   10.833443
 F    9.115396    3.801244   -0.576443
 F   10.833443    3.986896    1.327256
 F   11.426298    4.485386   -1.155964
 F   11.412964    6.297798    0.643114
 F    3.801244   -0.576443    9.115396
 F    3.986896    1.327256   10.833443
 F    4.485386   -1.155964   11.426298
 F    6.297798    0.643114   11.412964
 F   -0.576443    9.115396    3.801244
 F   -1.155964   11.426298    4.485386
 F    1.327256   10.833443    3.986896
 F    0.643114   11.412964    6.297798
